20 72 155
1 12 1
1 14 4
1 15 1
1 16 1
1 20 1
2 3 3
2 6 2
2 9 4
2 18 3
3 7 5
3 9 3
3 11 2
3 12 5
3 14 4
3 15 2
3 17 5
4 5 4
4 6 2
4 7 5
4 8 4
4 9 4
4 10 2
4 12 4
4 15 1
4 20 2
5 6 2
5 12 1
5 15 3
6 8 4
6 10 3
6 12 2
6 15 3
6 18 2
6 19 2
7 8 1
7 12 3
7 13 2
7 16 5
7 17 5
7 18 5
7 19 5
8 14 4
8 19 1
8 20 1
9 10 1
9 11 2
9 15 2
10 11 4
10 12 4
10 17 2
10 19 3
11 12 5
11 13 1
11 14 4
11 15 5
11 16 3
11 17 5
11 18 2
11 19 3
12 13 3
12 16 1
12 17 2
13 17 2
13 20 3
14 16 3
14 18 5
14 19 4
15 16 2
15 18 4
17 18 1
18 20 1
19 20 1
